param n = 5; #n tipos de bobina
param m = 10; #m padrões de corte
param D :=
1 18
2 31
3 25
4 15
5 14; #demanda
param C: 1 2 3 4 5 6 7 8 9 10 :=
1 5 2 1 0 0 0 0 0 0 1
2 0 0 1 2 0 0 3 1 0 0
3 0 0 0 2 1 0 0 0 1 0
4 0 1 0 0 1 0 0 1 0 1
5 0 0 1 0 0 1 0 0 0 0
; #padroes de corte
